p cnf 734 2169
c inputs: 1 2 3 4 5 6 7 8 9 10 11
c variables for gates: 12 ... 723
c outputs: 724 725 726 727 728 729 730 731 732 733 734
c random input: 1 2 3 4 -5 -6 7 -8 9 -10 -11
12 -4 -9 0
-12 4 0
-12 9 0
13 -4 -10 0
-13 4 0
-13 10 0
14 -4 -11 0
-14 4 0
-14 11 0
15 -5 -9 0
-15 5 0
-15 9 0
16 -5 -10 0
-16 5 0
-16 10 0
17 -5 -11 0
-17 5 0
-17 11 0
18 -13 -15 0
-18 13 0
-18 15 0
19 -13 15 0
-19 13 0
-19 -15 0
20 -15 13 0
-20 15 0
-20 -13 0
21 20 19 0
-21 -20 0
-21 -19 0
22 -14 -16 0
-22 14 0
-22 16 0
23 -14 16 0
-23 14 0
-23 -16 0
24 -16 14 0
-24 16 0
-24 -14 0
25 24 23 0
-25 -24 0
-25 -23 0
26 18 25 0
-26 -18 0
-26 -25 0
27 -18 -25 0
-27 18 0
-27 25 0
28 26 27 0
-28 -26 0
-28 -27 0
29 -18 25 0
-29 18 0
-29 -25 0
30 -17 22 0
-30 17 0
-30 -22 0
31 17 -22 0
-31 -17 0
-31 22 0
32 31 30 0
-32 -31 0
-32 -30 0
33 -29 -32 0
-33 29 0
-33 32 0
34 29 32 0
-34 -29 0
-34 -32 0
35 34 33 0
-35 -34 0
-35 -33 0
36 -17 -29 0
-36 17 0
-36 29 0
37 -22 -29 0
-37 22 0
-37 29 0
38 -17 -22 0
-38 17 0
-38 22 0
39 38 37 0
-39 -38 0
-39 -37 0
40 36 -39 0
-40 -36 0
-40 39 0
41 -1 -6 0
-41 1 0
-41 6 0
42 -1 -7 0
-42 1 0
-42 7 0
43 -1 -8 0
-43 1 0
-43 8 0
44 -2 -6 0
-44 2 0
-44 6 0
45 -2 -7 0
-45 2 0
-45 7 0
46 -2 -8 0
-46 2 0
-46 8 0
47 -3 -6 0
-47 3 0
-47 6 0
48 -3 -7 0
-48 3 0
-48 7 0
49 -3 -8 0
-49 3 0
-49 8 0
50 -44 -42 0
-50 44 0
-50 42 0
51 -42 44 0
-51 42 0
-51 -44 0
52 -44 42 0
-52 44 0
-52 -42 0
53 51 52 0
-53 -51 0
-53 -52 0
54 -45 -43 0
-54 45 0
-54 43 0
55 -47 -43 0
-55 47 0
-55 43 0
56 -45 -47 0
-56 45 0
-56 47 0
57 56 55 0
-57 -56 0
-57 -55 0
58 54 -57 0
-58 -54 0
-58 57 0
59 -45 47 0
-59 45 0
-59 -47 0
60 -47 45 0
-60 47 0
-60 -45 0
61 60 59 0
-61 -60 0
-61 -59 0
62 -43 -61 0
-62 43 0
-62 61 0
63 43 61 0
-63 -43 0
-63 -61 0
64 62 63 0
-64 -62 0
-64 -63 0
65 -46 -48 0
-65 46 0
-65 48 0
66 -46 48 0
-66 46 0
-66 -48 0
67 -48 46 0
-67 48 0
-67 -46 0
68 67 66 0
-68 -67 0
-68 -66 0
69 50 64 0
-69 -50 0
-69 -64 0
70 -50 -64 0
-70 50 0
-70 64 0
71 70 69 0
-71 -70 0
-71 -69 0
72 -50 64 0
-72 50 0
-72 -64 0
73 68 -58 0
-73 -68 0
-73 58 0
74 -68 58 0
-74 68 0
-74 -58 0
75 74 73 0
-75 -74 0
-75 -73 0
76 -72 -75 0
-76 72 0
-76 75 0
77 72 75 0
-77 -72 0
-77 -75 0
78 76 77 0
-78 -76 0
-78 -77 0
79 68 -72 0
-79 -68 0
-79 72 0
80 58 -72 0
-80 -58 0
-80 72 0
81 68 58 0
-81 -68 0
-81 -58 0
82 81 80 0
-82 -81 0
-82 -80 0
83 -82 79 0
-83 82 0
-83 -79 0
84 -49 65 0
-84 49 0
-84 -65 0
85 49 -65 0
-85 -49 0
-85 65 0
86 85 84 0
-86 -85 0
-86 -84 0
87 -86 83 0
-87 86 0
-87 -83 0
88 86 -83 0
-88 -86 0
-88 83 0
89 87 88 0
-89 -87 0
-89 -88 0
90 -49 83 0
-90 49 0
-90 -83 0
91 -65 83 0
-91 65 0
-91 -83 0
92 -49 -65 0
-92 49 0
-92 65 0
93 92 91 0
-93 -92 0
-93 -91 0
94 90 -93 0
-94 -90 0
-94 93 0
95 -9 6 0
-95 9 0
-95 -6 0
96 -6 9 0
-96 6 0
-96 -9 0
97 95 96 0
-97 -95 0
-97 -96 0
98 -10 7 0
-98 10 0
-98 -7 0
99 -7 10 0
-99 7 0
-99 -10 0
100 98 99 0
-100 -98 0
-100 -99 0
101 -6 -9 0
-101 6 0
-101 9 0
102 101 100 0
-102 -101 0
-102 -100 0
103 -101 -100 0
-103 101 0
-103 100 0
104 102 103 0
-104 -102 0
-104 -103 0
105 -7 -10 0
-105 7 0
-105 10 0
106 -6 -9 0
-106 6 0
-106 9 0
107 -10 -106 0
-107 10 0
-107 106 0
108 -6 -9 0
-108 6 0
-108 9 0
109 -7 -108 0
-109 7 0
-109 108 0
110 107 109 0
-110 -107 0
-110 -109 0
111 105 -110 0
-111 -105 0
-111 110 0
112 -11 8 0
-112 11 0
-112 -8 0
113 -8 11 0
-113 8 0
-113 -11 0
114 113 112 0
-114 -113 0
-114 -112 0
115 114 -111 0
-115 -114 0
-115 111 0
116 -114 111 0
-116 114 0
-116 -111 0
117 115 116 0
-117 -115 0
-117 -116 0
118 -8 -11 0
-118 8 0
-118 11 0
119 -11 111 0
-119 11 0
-119 -111 0
120 -8 111 0
-120 8 0
-120 -111 0
121 120 119 0
-121 -120 0
-121 -119 0
122 118 -121 0
-122 -118 0
-122 121 0
123 -4 1 0
-123 4 0
-123 -1 0
124 -1 4 0
-124 1 0
-124 -4 0
125 124 123 0
-125 -124 0
-125 -123 0
126 -5 2 0
-126 5 0
-126 -2 0
127 -2 5 0
-127 2 0
-127 -5 0
128 127 126 0
-128 -127 0
-128 -126 0
129 -1 -4 0
-129 1 0
-129 4 0
130 129 128 0
-130 -129 0
-130 -128 0
131 -129 -128 0
-131 129 0
-131 128 0
132 130 131 0
-132 -130 0
-132 -131 0
133 -2 -5 0
-133 2 0
-133 5 0
134 -1 -4 0
-134 1 0
-134 4 0
135 -5 -134 0
-135 5 0
-135 134 0
136 -1 -4 0
-136 1 0
-136 4 0
137 -2 -136 0
-137 2 0
-137 136 0
138 137 135 0
-138 -137 0
-138 -135 0
139 133 -138 0
-139 -133 0
-139 138 0
140 -3 -139 0
-140 3 0
-140 139 0
141 3 139 0
-141 -3 0
-141 -139 0
142 140 141 0
-142 -140 0
-142 -141 0
143 -3 139 0
-143 3 0
-143 -139 0
144 142 117 0
-144 -142 0
-144 -117 0
145 142 122 0
-145 -142 0
-145 -122 0
146 -143 117 0
-146 143 0
-146 -117 0
147 -143 122 0
-147 143 0
-147 -122 0
148 146 -145 0
-148 -146 0
-148 145 0
149 -146 145 0
-149 146 0
-149 -145 0
150 149 148 0
-150 -149 0
-150 -148 0
151 -146 -145 0
-151 146 0
-151 145 0
152 147 -151 0
-152 -147 0
-152 151 0
153 -147 151 0
-153 147 0
-153 -151 0
154 153 152 0
-154 -153 0
-154 -152 0
155 -147 -151 0
-155 147 0
-155 151 0
156 125 97 0
-156 -125 0
-156 -97 0
157 125 104 0
-157 -125 0
-157 -104 0
158 97 132 0
-158 -97 0
-158 -132 0
159 132 104 0
-159 -132 0
-159 -104 0
160 158 -157 0
-160 -158 0
-160 157 0
161 -158 157 0
-161 158 0
-161 -157 0
162 161 160 0
-162 -161 0
-162 -160 0
163 -158 -157 0
-163 158 0
-163 157 0
164 159 -163 0
-164 -159 0
-164 163 0
165 -159 163 0
-165 159 0
-165 -163 0
166 165 164 0
-166 -165 0
-166 -164 0
167 -159 -163 0
-167 159 0
-167 163 0
168 -97 117 0
-168 97 0
-168 -117 0
169 97 -117 0
-169 -97 0
-169 117 0
170 168 169 0
-170 -168 0
-170 -169 0
171 -104 122 0
-171 104 0
-171 -122 0
172 104 -122 0
-172 -104 0
-172 122 0
173 172 171 0
-173 -172 0
-173 -171 0
174 97 117 0
-174 -97 0
-174 -117 0
175 174 173 0
-175 -174 0
-175 -173 0
176 -174 -173 0
-176 174 0
-176 173 0
177 175 176 0
-177 -175 0
-177 -176 0
178 104 122 0
-178 -104 0
-178 -122 0
179 97 117 0
-179 -97 0
-179 -117 0
180 122 -179 0
-180 -122 0
-180 179 0
181 97 117 0
-181 -97 0
-181 -117 0
182 104 -181 0
-182 -104 0
-182 181 0
183 182 180 0
-183 -182 0
-183 -180 0
184 178 -183 0
-184 -178 0
-184 183 0
185 -125 142 0
-185 125 0
-185 -142 0
186 125 -142 0
-186 -125 0
-186 142 0
187 185 186 0
-187 -185 0
-187 -186 0
188 -143 -132 0
-188 143 0
-188 132 0
189 143 132 0
-189 -143 0
-189 -132 0
190 189 188 0
-190 -189 0
-190 -188 0
191 125 142 0
-191 -125 0
-191 -142 0
192 191 190 0
-192 -191 0
-192 -190 0
193 -191 -190 0
-193 191 0
-193 190 0
194 192 193 0
-194 -192 0
-194 -193 0
195 -143 132 0
-195 143 0
-195 -132 0
196 125 142 0
-196 -125 0
-196 -142 0
197 -143 -196 0
-197 143 0
-197 196 0
198 125 142 0
-198 -125 0
-198 -142 0
199 132 -198 0
-199 -132 0
-199 198 0
200 197 199 0
-200 -197 0
-200 -199 0
201 195 -200 0
-201 -195 0
-201 200 0
202 170 187 0
-202 -170 0
-202 -187 0
203 177 187 0
-203 -177 0
-203 -187 0
204 184 187 0
-204 -184 0
-204 -187 0
205 170 194 0
-205 -170 0
-205 -194 0
206 177 194 0
-206 -177 0
-206 -194 0
207 184 194 0
-207 -184 0
-207 -194 0
208 170 201 0
-208 -170 0
-208 -201 0
209 177 201 0
-209 -177 0
-209 -201 0
210 184 201 0
-210 -184 0
-210 -201 0
211 -205 -203 0
-211 205 0
-211 203 0
212 205 -203 0
-212 -205 0
-212 203 0
213 -205 203 0
-213 205 0
-213 -203 0
214 212 213 0
-214 -212 0
-214 -213 0
215 -206 -204 0
-215 206 0
-215 204 0
216 -204 -208 0
-216 204 0
-216 208 0
217 -206 -208 0
-217 206 0
-217 208 0
218 217 216 0
-218 -217 0
-218 -216 0
219 215 -218 0
-219 -215 0
-219 218 0
220 -206 208 0
-220 206 0
-220 -208 0
221 206 -208 0
-221 -206 0
-221 208 0
222 220 221 0
-222 -220 0
-222 -221 0
223 -222 -204 0
-223 222 0
-223 204 0
224 222 204 0
-224 -222 0
-224 -204 0
225 223 224 0
-225 -223 0
-225 -224 0
226 -207 -209 0
-226 207 0
-226 209 0
227 -207 209 0
-227 207 0
-227 -209 0
228 207 -209 0
-228 -207 0
-228 209 0
229 228 227 0
-229 -228 0
-229 -227 0
230 225 211 0
-230 -225 0
-230 -211 0
231 -225 -211 0
-231 225 0
-231 211 0
232 230 231 0
-232 -230 0
-232 -231 0
233 225 -211 0
-233 -225 0
-233 211 0
234 -219 229 0
-234 219 0
-234 -229 0
235 219 -229 0
-235 -219 0
-235 229 0
236 235 234 0
-236 -235 0
-236 -234 0
237 -233 -236 0
-237 233 0
-237 236 0
238 233 236 0
-238 -233 0
-238 -236 0
239 238 237 0
-239 -238 0
-239 -237 0
240 -233 229 0
-240 233 0
-240 -229 0
241 219 -233 0
-241 -219 0
-241 233 0
242 219 229 0
-242 -219 0
-242 -229 0
243 241 242 0
-243 -241 0
-243 -242 0
244 240 -243 0
-244 -240 0
-244 243 0
245 226 -210 0
-245 -226 0
-245 210 0
246 -226 210 0
-246 226 0
-246 -210 0
247 245 246 0
-247 -245 0
-247 -246 0
248 -247 244 0
-248 247 0
-248 -244 0
249 247 -244 0
-249 -247 0
-249 244 0
250 248 249 0
-250 -248 0
-250 -249 0
251 -210 244 0
-251 210 0
-251 -244 0
252 -226 244 0
-252 226 0
-252 -244 0
253 -226 -210 0
-253 226 0
-253 210 0
254 252 253 0
-254 -252 0
-254 -253 0
255 251 -254 0
-255 -251 0
-255 254 0
256 -144 -150 0
-256 144 0
-256 150 0
257 144 150 0
-257 -144 0
-257 -150 0
258 256 257 0
-258 -256 0
-258 -257 0
259 144 -150 0
-259 -144 0
-259 150 0
260 -154 259 0
-260 154 0
-260 -259 0
261 154 -259 0
-261 -154 0
-261 259 0
262 260 261 0
-262 -260 0
-262 -261 0
263 -154 -259 0
-263 154 0
-263 259 0
264 263 155 0
-264 -263 0
-264 -155 0
265 -263 -155 0
-265 263 0
-265 155 0
266 265 264 0
-266 -265 0
-266 -264 0
267 -263 155 0
-267 263 0
-267 -155 0
268 -202 144 0
-268 202 0
-268 -144 0
269 202 -144 0
-269 -202 0
-269 144 0
270 269 268 0
-270 -269 0
-270 -268 0
271 -258 214 0
-271 258 0
-271 -214 0
272 258 -214 0
-272 -258 0
-272 214 0
273 272 271 0
-273 -272 0
-273 -271 0
274 -202 -144 0
-274 202 0
-274 144 0
275 274 273 0
-275 -274 0
-275 -273 0
276 -274 -273 0
-276 274 0
-276 273 0
277 275 276 0
-277 -275 0
-277 -276 0
278 258 214 0
-278 -258 0
-278 -214 0
279 -202 -144 0
-279 202 0
-279 144 0
280 -279 214 0
-280 279 0
-280 -214 0
281 -202 -144 0
-281 202 0
-281 144 0
282 -281 258 0
-282 281 0
-282 -258 0
283 280 282 0
-283 -280 0
-283 -282 0
284 -283 278 0
-284 283 0
-284 -278 0
285 -262 232 0
-285 262 0
-285 -232 0
286 262 -232 0
-286 -262 0
-286 232 0
287 285 286 0
-287 -285 0
-287 -286 0
288 287 -284 0
-288 -287 0
-288 284 0
289 -287 284 0
-289 287 0
-289 -284 0
290 288 289 0
-290 -288 0
-290 -289 0
291 262 232 0
-291 -262 0
-291 -232 0
292 232 284 0
-292 -232 0
-292 -284 0
293 262 284 0
-293 -262 0
-293 -284 0
294 293 292 0
-294 -293 0
-294 -292 0
295 291 -294 0
-295 -291 0
-295 294 0
296 239 -266 0
-296 -239 0
-296 266 0
297 -239 266 0
-297 239 0
-297 -266 0
298 296 297 0
-298 -296 0
-298 -297 0
299 -295 298 0
-299 295 0
-299 -298 0
300 295 -298 0
-300 -295 0
-300 298 0
301 299 300 0
-301 -299 0
-301 -300 0
302 239 266 0
-302 -239 0
-302 -266 0
303 239 295 0
-303 -239 0
-303 -295 0
304 295 266 0
-304 -295 0
-304 -266 0
305 303 304 0
-305 -303 0
-305 -304 0
306 302 -305 0
-306 -302 0
-306 305 0
307 -267 250 0
-307 267 0
-307 -250 0
308 267 -250 0
-308 -267 0
-308 250 0
309 308 307 0
-309 -308 0
-309 -307 0
310 309 -306 0
-310 -309 0
-310 306 0
311 -309 306 0
-311 309 0
-311 -306 0
312 311 310 0
-312 -311 0
-312 -310 0
313 267 250 0
-313 -267 0
-313 -250 0
314 250 306 0
-314 -250 0
-314 -306 0
315 267 306 0
-315 -267 0
-315 -306 0
316 315 314 0
-316 -315 0
-316 -314 0
317 313 -316 0
-317 -313 0
-317 316 0
318 -267 255 0
-318 267 0
-318 -255 0
319 267 -255 0
-319 -267 0
-319 255 0
320 318 319 0
-320 -318 0
-320 -319 0
321 320 -317 0
-321 -320 0
-321 317 0
322 -320 317 0
-322 320 0
-322 -317 0
323 321 322 0
-323 -321 0
-323 -322 0
324 -156 -162 0
-324 156 0
-324 162 0
325 156 162 0
-325 -156 0
-325 -162 0
326 325 324 0
-326 -325 0
-326 -324 0
327 156 -162 0
-327 -156 0
-327 162 0
328 -166 327 0
-328 166 0
-328 -327 0
329 166 -327 0
-329 -166 0
-329 327 0
330 329 328 0
-330 -329 0
-330 -328 0
331 -166 -327 0
-331 166 0
-331 327 0
332 331 167 0
-332 -331 0
-332 -167 0
333 -331 -167 0
-333 331 0
-333 167 0
334 332 333 0
-334 -332 0
-334 -333 0
335 -331 167 0
-335 331 0
-335 -167 0
336 156 270 0
-336 -156 0
-336 -270 0
337 -156 -270 0
-337 156 0
-337 270 0
338 336 337 0
-338 -336 0
-338 -337 0
339 277 -326 0
-339 -277 0
-339 326 0
340 -277 326 0
-340 277 0
-340 -326 0
341 340 339 0
-341 -340 0
-341 -339 0
342 -156 270 0
-342 156 0
-342 -270 0
343 341 342 0
-343 -341 0
-343 -342 0
344 -341 -342 0
-344 341 0
-344 342 0
345 344 343 0
-345 -344 0
-345 -343 0
346 277 326 0
-346 -277 0
-346 -326 0
347 -156 270 0
-347 156 0
-347 -270 0
348 277 -347 0
-348 -277 0
-348 347 0
349 -156 270 0
-349 156 0
-349 -270 0
350 326 -349 0
-350 -326 0
-350 349 0
351 350 348 0
-351 -350 0
-351 -348 0
352 346 -351 0
-352 -346 0
-352 351 0
353 -330 290 0
-353 330 0
-353 -290 0
354 330 -290 0
-354 -330 0
-354 290 0
355 354 353 0
-355 -354 0
-355 -353 0
356 355 -352 0
-356 -355 0
-356 352 0
357 -355 352 0
-357 355 0
-357 -352 0
358 357 356 0
-358 -357 0
-358 -356 0
359 330 290 0
-359 -330 0
-359 -290 0
360 290 352 0
-360 -290 0
-360 -352 0
361 330 352 0
-361 -330 0
-361 -352 0
362 360 361 0
-362 -360 0
-362 -361 0
363 359 -362 0
-363 -359 0
-363 362 0
364 -334 301 0
-364 334 0
-364 -301 0
365 334 -301 0
-365 -334 0
-365 301 0
366 365 364 0
-366 -365 0
-366 -364 0
367 366 -363 0
-367 -366 0
-367 363 0
368 -366 363 0
-368 366 0
-368 -363 0
369 367 368 0
-369 -367 0
-369 -368 0
370 334 301 0
-370 -334 0
-370 -301 0
371 363 301 0
-371 -363 0
-371 -301 0
372 334 363 0
-372 -334 0
-372 -363 0
373 371 372 0
-373 -371 0
-373 -372 0
374 370 -373 0
-374 -370 0
-374 373 0
375 312 -335 0
-375 -312 0
-375 335 0
376 -312 335 0
-376 312 0
-376 -335 0
377 375 376 0
-377 -375 0
-377 -376 0
378 377 -374 0
-378 -377 0
-378 374 0
379 -377 374 0
-379 377 0
-379 -374 0
380 378 379 0
-380 -378 0
-380 -379 0
381 312 335 0
-381 -312 0
-381 -335 0
382 312 374 0
-382 -312 0
-382 -374 0
383 335 374 0
-383 -335 0
-383 -374 0
384 383 382 0
-384 -383 0
-384 -382 0
385 -384 381 0
-385 384 0
-385 -381 0
386 323 -335 0
-386 -323 0
-386 335 0
387 -323 335 0
-387 323 0
-387 -335 0
388 387 386 0
-388 -387 0
-388 -386 0
389 -385 388 0
-389 385 0
-389 -388 0
390 385 -388 0
-390 -385 0
-390 388 0
391 390 389 0
-391 -390 0
-391 -389 0
392 -338 166 0
-392 338 0
-392 -166 0
393 338 -166 0
-393 -338 0
-393 166 0
394 392 393 0
-394 -392 0
-394 -393 0
395 338 166 0
-395 -338 0
-395 -166 0
396 -345 -167 0
-396 345 0
-396 167 0
397 345 167 0
-397 -345 0
-397 -167 0
398 396 397 0
-398 -396 0
-398 -397 0
399 395 398 0
-399 -395 0
-399 -398 0
400 -395 -398 0
-400 395 0
-400 398 0
401 399 400 0
-401 -399 0
-401 -400 0
402 345 -167 0
-402 -345 0
-402 167 0
403 -395 -167 0
-403 395 0
-403 167 0
404 345 -395 0
-404 -345 0
-404 395 0
405 404 403 0
-405 -404 0
-405 -403 0
406 -405 402 0
-406 405 0
-406 -402 0
407 -406 -144 0
-407 406 0
-407 144 0
408 406 144 0
-408 -406 0
-408 -144 0
409 407 408 0
-409 -407 0
-409 -408 0
410 -409 358 0
-410 409 0
-410 -358 0
411 409 -358 0
-411 -409 0
-411 358 0
412 410 411 0
-412 -410 0
-412 -411 0
413 -144 358 0
-413 144 0
-413 -358 0
414 406 358 0
-414 -406 0
-414 -358 0
415 406 -144 0
-415 -406 0
-415 144 0
416 415 414 0
-416 -415 0
-416 -414 0
417 413 -416 0
-417 -413 0
-417 416 0
418 -417 150 0
-418 417 0
-418 -150 0
419 417 -150 0
-419 -417 0
-419 150 0
420 419 418 0
-420 -419 0
-420 -418 0
421 369 -420 0
-421 -369 0
-421 420 0
422 -369 420 0
-422 369 0
-422 -420 0
423 421 422 0
-423 -421 0
-423 -422 0
424 369 150 0
-424 -369 0
-424 -150 0
425 369 417 0
-425 -369 0
-425 -417 0
426 417 150 0
-426 -417 0
-426 -150 0
427 426 425 0
-427 -426 0
-427 -425 0
428 424 -427 0
-428 -424 0
-428 427 0
429 -428 154 0
-429 428 0
-429 -154 0
430 428 -154 0
-430 -428 0
-430 154 0
431 429 430 0
-431 -429 0
-431 -430 0
432 380 -431 0
-432 -380 0
-432 431 0
433 -380 431 0
-433 380 0
-433 -431 0
434 432 433 0
-434 -432 0
-434 -433 0
435 154 380 0
-435 -154 0
-435 -380 0
436 428 380 0
-436 -428 0
-436 -380 0
437 428 154 0
-437 -428 0
-437 -154 0
438 437 436 0
-438 -437 0
-438 -436 0
439 -438 435 0
-439 438 0
-439 -435 0
440 -155 -439 0
-440 155 0
-440 439 0
441 155 439 0
-441 -155 0
-441 -439 0
442 440 441 0
-442 -440 0
-442 -441 0
443 -442 391 0
-443 442 0
-443 -391 0
444 442 -391 0
-444 -442 0
-444 391 0
445 443 444 0
-445 -443 0
-445 -444 0
446 -155 391 0
-446 155 0
-446 -391 0
447 439 391 0
-447 -439 0
-447 -391 0
448 -155 439 0
-448 155 0
-448 -439 0
449 448 447 0
-449 -448 0
-449 -447 0
450 446 -449 0
-450 -446 0
-450 449 0
451 -12 -21 0
-451 12 0
-451 21 0
452 12 21 0
-452 -12 0
-452 -21 0
453 451 452 0
-453 -451 0
-453 -452 0
454 12 -21 0
-454 -12 0
-454 21 0
455 454 -28 0
-455 -454 0
-455 28 0
456 -454 28 0
-456 454 0
-456 -28 0
457 456 455 0
-457 -456 0
-457 -455 0
458 -454 -28 0
-458 454 0
-458 28 0
459 -35 458 0
-459 35 0
-459 -458 0
460 35 -458 0
-460 -35 0
-460 458 0
461 459 460 0
-461 -459 0
-461 -460 0
462 -35 -458 0
-462 35 0
-462 458 0
463 462 -40 0
-463 -462 0
-463 40 0
464 -462 40 0
-464 462 0
-464 -40 0
465 464 463 0
-465 -464 0
-465 -463 0
466 -462 -40 0
-466 462 0
-466 40 0
467 12 -156 0
-467 -12 0
-467 156 0
468 -12 156 0
-468 12 0
-468 -156 0
469 468 467 0
-469 -468 0
-469 -467 0
470 -453 162 0
-470 453 0
-470 -162 0
471 453 -162 0
-471 -453 0
-471 162 0
472 471 470 0
-472 -471 0
-472 -470 0
473 -12 -156 0
-473 12 0
-473 156 0
474 473 472 0
-474 -473 0
-474 -472 0
475 -473 -472 0
-475 473 0
-475 472 0
476 475 474 0
-476 -475 0
-476 -474 0
477 453 162 0
-477 -453 0
-477 -162 0
478 -12 -156 0
-478 12 0
-478 156 0
479 -478 162 0
-479 478 0
-479 -162 0
480 -12 -156 0
-480 12 0
-480 156 0
481 -480 453 0
-481 480 0
-481 -453 0
482 481 479 0
-482 -481 0
-482 -479 0
483 477 -482 0
-483 -477 0
-483 482 0
484 -457 394 0
-484 457 0
-484 -394 0
485 457 -394 0
-485 -457 0
-485 394 0
486 484 485 0
-486 -484 0
-486 -485 0
487 486 -483 0
-487 -486 0
-487 483 0
488 -486 483 0
-488 486 0
-488 -483 0
489 487 488 0
-489 -487 0
-489 -488 0
490 457 394 0
-490 -457 0
-490 -394 0
491 483 394 0
-491 -483 0
-491 -394 0
492 483 457 0
-492 -483 0
-492 -457 0
493 492 491 0
-493 -492 0
-493 -491 0
494 490 -493 0
-494 -490 0
-494 493 0
495 401 -461 0
-495 -401 0
-495 461 0
496 -401 461 0
-496 401 0
-496 -461 0
497 496 495 0
-497 -496 0
-497 -495 0
498 -494 497 0
-498 494 0
-498 -497 0
499 494 -497 0
-499 -494 0
-499 497 0
500 499 498 0
-500 -499 0
-500 -498 0
501 401 461 0
-501 -401 0
-501 -461 0
502 494 401 0
-502 -494 0
-502 -401 0
503 494 461 0
-503 -494 0
-503 -461 0
504 502 503 0
-504 -502 0
-504 -503 0
505 -504 501 0
-505 504 0
-505 -501 0
506 -465 412 0
-506 465 0
-506 -412 0
507 465 -412 0
-507 -465 0
-507 412 0
508 506 507 0
-508 -506 0
-508 -507 0
509 508 -505 0
-509 -508 0
-509 505 0
510 -508 505 0
-510 508 0
-510 -505 0
511 510 509 0
-511 -510 0
-511 -509 0
512 465 412 0
-512 -465 0
-512 -412 0
513 505 412 0
-513 -505 0
-513 -412 0
514 505 465 0
-514 -505 0
-514 -465 0
515 514 513 0
-515 -514 0
-515 -513 0
516 -515 512 0
-516 515 0
-516 -512 0
517 423 -466 0
-517 -423 0
-517 466 0
518 -423 466 0
-518 423 0
-518 -466 0
519 517 518 0
-519 -517 0
-519 -518 0
520 519 -516 0
-520 -519 0
-520 516 0
521 -519 516 0
-521 519 0
-521 -516 0
522 520 521 0
-522 -520 0
-522 -521 0
523 423 466 0
-523 -423 0
-523 -466 0
524 423 516 0
-524 -423 0
-524 -516 0
525 516 466 0
-525 -516 0
-525 -466 0
526 525 524 0
-526 -525 0
-526 -524 0
527 -526 523 0
-527 526 0
-527 -523 0
528 -466 434 0
-528 466 0
-528 -434 0
529 466 -434 0
-529 -466 0
-529 434 0
530 529 528 0
-530 -529 0
-530 -528 0
531 530 -527 0
-531 -530 0
-531 527 0
532 -530 527 0
-532 530 0
-532 -527 0
533 531 532 0
-533 -531 0
-533 -532 0
534 466 434 0
-534 -466 0
-534 -434 0
535 527 434 0
-535 -527 0
-535 -434 0
536 527 466 0
-536 -527 0
-536 -466 0
537 536 535 0
-537 -536 0
-537 -535 0
538 -537 534 0
-538 537 0
-538 -534 0
539 -466 445 0
-539 466 0
-539 -445 0
540 466 -445 0
-540 -466 0
-540 445 0
541 540 539 0
-541 -540 0
-541 -539 0
542 541 -538 0
-542 -541 0
-542 538 0
543 -541 538 0
-543 541 0
-543 -538 0
544 543 542 0
-544 -543 0
-544 -542 0
545 -41 -53 0
-545 41 0
-545 53 0
546 41 53 0
-546 -41 0
-546 -53 0
547 545 546 0
-547 -545 0
-547 -546 0
548 41 -53 0
-548 -41 0
-548 53 0
549 548 -71 0
-549 -548 0
-549 71 0
550 -548 71 0
-550 548 0
-550 -71 0
551 550 549 0
-551 -550 0
-551 -549 0
552 -548 -71 0
-552 548 0
-552 71 0
553 552 -78 0
-553 -552 0
-553 78 0
554 -552 78 0
-554 552 0
-554 -78 0
555 554 553 0
-555 -554 0
-555 -553 0
556 -552 -78 0
-556 552 0
-556 78 0
557 -89 556 0
-557 89 0
-557 -556 0
558 89 -556 0
-558 -89 0
-558 556 0
559 558 557 0
-559 -558 0
-559 -557 0
560 -89 -556 0
-560 89 0
-560 556 0
561 -94 560 0
-561 94 0
-561 -560 0
562 94 -560 0
-562 -94 0
-562 560 0
563 562 561 0
-563 -562 0
-563 -561 0
564 -94 -560 0
-564 94 0
-564 560 0
565 41 469 0
-565 -41 0
-565 -469 0
566 -41 -469 0
-566 41 0
-566 469 0
567 566 565 0
-567 -566 0
-567 -565 0
568 -547 476 0
-568 547 0
-568 -476 0
569 547 -476 0
-569 -547 0
-569 476 0
570 568 569 0
-570 -568 0
-570 -569 0
571 -41 469 0
-571 41 0
-571 -469 0
572 571 570 0
-572 -571 0
-572 -570 0
573 -571 -570 0
-573 571 0
-573 570 0
574 572 573 0
-574 -572 0
-574 -573 0
575 547 476 0
-575 -547 0
-575 -476 0
576 -41 469 0
-576 41 0
-576 -469 0
577 -576 476 0
-577 576 0
-577 -476 0
578 -41 469 0
-578 41 0
-578 -469 0
579 547 -578 0
-579 -547 0
-579 578 0
580 577 579 0
-580 -577 0
-580 -579 0
581 575 -580 0
-581 -575 0
-581 580 0
582 489 -551 0
-582 -489 0
-582 551 0
583 -489 551 0
-583 489 0
-583 -551 0
584 582 583 0
-584 -582 0
-584 -583 0
585 584 -581 0
-585 -584 0
-585 581 0
586 -584 581 0
-586 584 0
-586 -581 0
587 586 585 0
-587 -586 0
-587 -585 0
588 489 551 0
-588 -489 0
-588 -551 0
589 489 581 0
-589 -489 0
-589 -581 0
590 551 581 0
-590 -551 0
-590 -581 0
591 589 590 0
-591 -589 0
-591 -590 0
592 588 -591 0
-592 -588 0
-592 591 0
593 -555 500 0
-593 555 0
-593 -500 0
594 555 -500 0
-594 -555 0
-594 500 0
595 594 593 0
-595 -594 0
-595 -593 0
596 595 -592 0
-596 -595 0
-596 592 0
597 -595 592 0
-597 595 0
-597 -592 0
598 597 596 0
-598 -597 0
-598 -596 0
599 555 500 0
-599 -555 0
-599 -500 0
600 592 500 0
-600 -592 0
-600 -500 0
601 592 555 0
-601 -592 0
-601 -555 0
602 601 600 0
-602 -601 0
-602 -600 0
603 -602 599 0
-603 602 0
-603 -599 0
604 -559 511 0
-604 559 0
-604 -511 0
605 559 -511 0
-605 -559 0
-605 511 0
606 605 604 0
-606 -605 0
-606 -604 0
607 606 -603 0
-607 -606 0
-607 603 0
608 -606 603 0
-608 606 0
-608 -603 0
609 607 608 0
-609 -607 0
-609 -608 0
610 559 511 0
-610 -559 0
-610 -511 0
611 603 511 0
-611 -603 0
-611 -511 0
612 603 559 0
-612 -603 0
-612 -559 0
613 611 612 0
-613 -611 0
-613 -612 0
614 -613 610 0
-614 613 0
-614 -610 0
615 -563 522 0
-615 563 0
-615 -522 0
616 563 -522 0
-616 -563 0
-616 522 0
617 616 615 0
-617 -616 0
-617 -615 0
618 617 -614 0
-618 -617 0
-618 614 0
619 -617 614 0
-619 617 0
-619 -614 0
620 619 618 0
-620 -619 0
-620 -618 0
621 563 522 0
-621 -563 0
-621 -522 0
622 614 522 0
-622 -614 0
-622 -522 0
623 563 614 0
-623 -563 0
-623 -614 0
624 623 622 0
-624 -623 0
-624 -622 0
625 621 -624 0
-625 -621 0
-625 624 0
626 533 -564 0
-626 -533 0
-626 564 0
627 -533 564 0
-627 533 0
-627 -564 0
628 627 626 0
-628 -627 0
-628 -626 0
629 -625 628 0
-629 625 0
-629 -628 0
630 625 -628 0
-630 -625 0
-630 628 0
631 630 629 0
-631 -630 0
-631 -629 0
632 533 564 0
-632 -533 0
-632 -564 0
633 533 625 0
-633 -533 0
-633 -625 0
634 625 564 0
-634 -625 0
-634 -564 0
635 633 634 0
-635 -633 0
-635 -634 0
636 -635 632 0
-636 635 0
-636 -632 0
637 544 -564 0
-637 -544 0
-637 564 0
638 -544 564 0
-638 544 0
-638 -564 0
639 637 638 0
-639 -637 0
-639 -638 0
640 -636 639 0
-640 636 0
-640 -639 0
641 636 -639 0
-641 -636 0
-641 639 0
642 640 641 0
-642 -640 0
-642 -641 0
643 -567 78 0
-643 567 0
-643 -78 0
644 567 -78 0
-644 -567 0
-644 78 0
645 644 643 0
-645 -644 0
-645 -643 0
646 567 78 0
-646 -567 0
-646 -78 0
647 -574 89 0
-647 574 0
-647 -89 0
648 574 -89 0
-648 -574 0
-648 89 0
649 647 648 0
-649 -647 0
-649 -648 0
650 649 646 0
-650 -649 0
-650 -646 0
651 -649 -646 0
-651 649 0
-651 646 0
652 650 651 0
-652 -650 0
-652 -651 0
653 574 89 0
-653 -574 0
-653 -89 0
654 89 -646 0
-654 -89 0
-654 646 0
655 574 -646 0
-655 -574 0
-655 646 0
656 654 655 0
-656 -654 0
-656 -655 0
657 653 -656 0
-657 -653 0
-657 656 0
658 94 -587 0
-658 -94 0
-658 587 0
659 -94 587 0
-659 94 0
-659 -587 0
660 659 658 0
-660 -659 0
-660 -658 0
661 -657 660 0
-661 657 0
-661 -660 0
662 657 -660 0
-662 -657 0
-662 660 0
663 662 661 0
-663 -662 0
-663 -661 0
664 94 587 0
-664 -94 0
-664 -587 0
665 94 657 0
-665 -94 0
-665 -657 0
666 657 587 0
-666 -657 0
-666 -587 0
667 665 666 0
-667 -665 0
-667 -666 0
668 -667 664 0
-668 667 0
-668 -664 0
669 -12 -668 0
-669 12 0
-669 668 0
670 12 668 0
-670 -12 0
-670 -668 0
671 669 670 0
-671 -669 0
-671 -670 0
672 598 -671 0
-672 -598 0
-672 671 0
673 -598 671 0
-673 598 0
-673 -671 0
674 673 672 0
-674 -673 0
-674 -672 0
675 -12 598 0
-675 12 0
-675 -598 0
676 668 598 0
-676 -668 0
-676 -598 0
677 -12 668 0
-677 12 0
-677 -668 0
678 677 676 0
-678 -677 0
-678 -676 0
679 -678 675 0
-679 678 0
-679 -675 0
680 21 -679 0
-680 -21 0
-680 679 0
681 -21 679 0
-681 21 0
-681 -679 0
682 681 680 0
-682 -681 0
-682 -680 0
683 609 -682 0
-683 -609 0
-683 682 0
684 -609 682 0
-684 609 0
-684 -682 0
685 683 684 0
-685 -683 0
-685 -684 0
686 21 609 0
-686 -21 0
-686 -609 0
687 609 679 0
-687 -609 0
-687 -679 0
688 21 679 0
-688 -21 0
-688 -679 0
689 687 688 0
-689 -687 0
-689 -688 0
690 -689 686 0
-690 689 0
-690 -686 0
691 28 -690 0
-691 -28 0
-691 690 0
692 -28 690 0
-692 28 0
-692 -690 0
693 691 692 0
-693 -691 0
-693 -692 0
694 -693 620 0
-694 693 0
-694 -620 0
695 693 -620 0
-695 -693 0
-695 620 0
696 694 695 0
-696 -694 0
-696 -695 0
697 28 620 0
-697 -28 0
-697 -620 0
698 690 620 0
-698 -690 0
-698 -620 0
699 28 690 0
-699 -28 0
-699 -690 0
700 698 699 0
-700 -698 0
-700 -699 0
701 -700 697 0
-701 700 0
-701 -697 0
702 35 -701 0
-702 -35 0
-702 701 0
703 -35 701 0
-703 35 0
-703 -701 0
704 702 703 0
-704 -702 0
-704 -703 0
705 631 -704 0
-705 -631 0
-705 704 0
706 -631 704 0
-706 631 0
-706 -704 0
707 705 706 0
-707 -705 0
-707 -706 0
708 35 631 0
-708 -35 0
-708 -631 0
709 631 701 0
-709 -631 0
-709 -701 0
710 35 701 0
-710 -35 0
-710 -701 0
711 710 709 0
-711 -710 0
-711 -709 0
712 708 -711 0
-712 -708 0
-712 711 0
713 -712 40 0
-713 712 0
-713 -40 0
714 712 -40 0
-714 -712 0
-714 40 0
715 714 713 0
-715 -714 0
-715 -713 0
716 642 -715 0
-716 -642 0
-716 715 0
717 -642 715 0
-717 642 0
-717 -715 0
718 716 717 0
-718 -716 0
-718 -717 0
719 642 40 0
-719 -642 0
-719 -40 0
720 712 642 0
-720 -712 0
-720 -642 0
721 712 40 0
-721 -712 0
-721 -40 0
722 720 721 0
-722 -720 0
-722 -721 0
723 -722 719 0
-723 722 0
-723 -719 0
-724 41 0
724 -41 0
-725 -53 0
725 53 0
-726 -71 0
726 71 0
-727 -645 0
727 645 0
-728 -652 0
728 652 0
-729 -663 0
729 663 0
-730 -674 0
730 674 0
-731 -685 0
731 685 0
-732 -696 0
732 696 0
-733 -707 0
733 707 0
-734 -718 0
734 718 0
-724 0
725 0
726 0
-727 0
728 0
-729 0
-730 0
731 0
-732 0
-733 0
-734 0
